Version identifier: 22.1.0.0 | 2022-03-09 | 1a383f8ce
CPXPARAM_Threads                                 1
CPXPARAM_MIP_Strategy_VariableSelect             3
CPXPARAM_TimeLimit                               599.99996634700005
1 of 1 MIP starts provided solutions.
MIP start 'm1' defined initial solution with objective 5.0000.
Tried aggregator 2 times.
MIP Presolve eliminated 38 rows and 1 columns.
MIP Presolve added 36 rows and 9 columns.
MIP Presolve modified 46 coefficients.
Aggregator did 9 substitutions.
Reduced MIP has 1815 rows, 7800 columns, and 125454 nonzeros.
Reduced MIP has 7800 binaries, 0 generals, 0 SOSs, and 0 indicators.
Presolve time = 0.18 sec. (223.24 ticks)
Probing time = 0.03 sec. (24.29 ticks)
Tried aggregator 1 time.
Detecting symmetries...
MIP Presolve modified 12 coefficients.
Reduced MIP has 1815 rows, 7800 columns, and 125754 nonzeros.
Reduced MIP has 7800 binaries, 0 generals, 0 SOSs, and 0 indicators.
Presolve time = 0.13 sec. (171.00 ticks)
Probing time = 0.03 sec. (24.31 ticks)
Clique table members: 899.
MIP emphasis: balance optimality and feasibility.
MIP search method: dynamic search.
Parallel mode: none, using 1 thread.
Root relaxation solution time = 1.92 sec. (2177.85 ticks)

        Nodes                                         Cuts/
   Node  Left     Objective  IInf  Best Integer    Best Bound    ItCnt     Gap

*     0+    0                            5.0000    45150.0000              --- 
      0     0      300.0000  1141        5.0000      300.0000     4999     --- 
*     0+    0                           63.0000      300.0000           376.19%
      0     0      300.0000   390       63.0000    Cliques: 4     7437  376.19%
*     0+    0                           80.0000      300.0000           275.00%
*     0+    0                          285.0000      300.0000             5.26%
      0     0        cutoff            285.0000      300.0000     7437    5.26%
Detecting symmetries...
      0     2      300.0000   166      285.0000      300.0000     7437    5.26%
Elapsed time = 32.25 sec. (38545.34 ticks, tree = 0.01 MB, solutions = 4)
      1     3      300.0000   183      285.0000      300.0000    20202    5.26%
      2     4      300.0000   302      285.0000      300.0000    24787    5.26%
      3     5      300.0000   128      285.0000      300.0000    26382    5.26%
      4     6      300.0000  1341      285.0000      300.0000    32429    5.26%
      5     7      300.0000   138      285.0000      300.0000    33092    5.26%
      6     8      300.0000   196      285.0000      300.0000    52549    5.26%
      7     9      300.0000  1483      285.0000      300.0000    56980    5.26%
      8    10      300.0000   200      285.0000      300.0000    58647    5.26%
      9    11      300.0000   439      285.0000      300.0000    67804    5.26%
     11    13      300.0000   200      285.0000      300.0000    68465    5.26%
Elapsed time = 58.53 sec. (70042.80 ticks, tree = 0.06 MB, solutions = 4)
     12    14      300.0000   356      285.0000      300.0000    78467    5.26%
     13    15      300.0000   771      285.0000      300.0000    81070    5.26%
     15    17      300.0000   296      285.0000      300.0000    92890    5.26%
     16    18      300.0000   659      285.0000      300.0000    98477    5.26%
     17    19      300.0000  1288      285.0000      300.0000   102337    5.26%
     18    20      300.0000  1334      285.0000      300.0000   104594    5.26%
     20    22      300.0000  1217      285.0000      300.0000   106453    5.26%
     21    23      300.0000  1317      285.0000      300.0000   108331    5.26%
     23    25      300.0000  1169      285.0000      300.0000   108928    5.26%
     25    27      300.0000  1082      285.0000      300.0000   111615    5.26%
Elapsed time = 72.88 sec. (85922.74 ticks, tree = 0.11 MB, solutions = 4)
     26    28      300.0000  1038      285.0000      300.0000   113385    5.26%
     27    29      300.0000  1256      285.0000      300.0000   115454    5.26%
     30    32      300.0000  1031      285.0000      300.0000   115982    5.26%
     32    34      300.0000   908      285.0000      300.0000   118070    5.26%
     34    36      300.0000   837      285.0000      300.0000   121865    5.26%
     35    37      300.0000   800      285.0000      300.0000   126468    5.26%
     37    39      300.0000   725      285.0000      300.0000   129239    5.26%
     39    41      300.0000   725      285.0000      300.0000   130995    5.26%
     41    43      300.0000   738      285.0000      300.0000   135229    5.26%
     43    45      300.0000   749      285.0000      300.0000   137841    5.26%
Elapsed time = 93.52 sec. (107375.97 ticks, tree = 0.18 MB, solutions = 4)
     45    47      300.0000   721      285.0000      300.0000   140039    5.26%
     47    49      300.0000   995      285.0000      300.0000   146461    5.26%
     50    52      300.0000   737      285.0000      300.0000   150369    5.26%
     51    53      300.0000   704      285.0000      300.0000   154674    5.26%
     53    55      300.0000   618      285.0000      300.0000   157890    5.26%
     54    56      300.0000   584      285.0000      300.0000   164834    5.26%
     56    58      300.0000   660      285.0000      300.0000   168403    5.26%
     58    60      300.0000   581      285.0000      300.0000   176157    5.26%
     60    62      300.0000   542      285.0000      300.0000   178481    5.26%
     62    64      300.0000   440      285.0000      300.0000   190444    5.26%
Elapsed time = 112.84 sec. (127697.37 ticks, tree = 0.24 MB, solutions = 4)
     63    65      300.0000   619      285.0000      300.0000   201616    5.26%
     64    66      300.0000   543      285.0000      300.0000   208328    5.26%
     66    68      300.0000   520      285.0000      300.0000   210633    5.26%
     67    68      299.0000   478      285.0000      300.0000   226378    5.26%
     69    70      300.0000   557      285.0000      300.0000   228413    5.26%
     70    71      300.0000   523      285.0000      300.0000   228549    5.26%
     71    72      300.0000   544      285.0000      300.0000   231091    5.26%
     73    73      299.0000   432      285.0000      300.0000   242535    5.26%
     75    75      300.0000   531      285.0000      300.0000   247282    5.26%
     77    77      300.0000   389      285.0000      300.0000   251180    5.26%
Elapsed time = 133.86 sec. (149620.29 ticks, tree = 0.34 MB, solutions = 4)
     79    78      299.0000   495      285.0000      300.0000   269610    5.26%
     80    79      300.0000   367      285.0000      300.0000   269951    5.26%
     82    81      300.0000   337      285.0000      300.0000   275152    5.26%
     85    84      300.0000   334      285.0000      300.0000   278056    5.26%
     86    85      300.0000   402      285.0000      300.0000   288588    5.26%
     89    88      300.0000   275      285.0000      300.0000   295045    5.26%
     90    89      300.0000   348      285.0000      300.0000   307625    5.26%
     92    90      299.0000   455      285.0000      300.0000   314280    5.26%
     94    92      300.0000   261      285.0000      300.0000   336071    5.26%
     95    93      300.0000   347      285.0000      300.0000   345274    5.26%
Elapsed time = 154.27 sec. (170127.19 ticks, tree = 0.60 MB, solutions = 4)
     97    95      300.0000   333      285.0000      300.0000   352738    5.26%
    100    98      300.0000   400      285.0000      300.0000   364121    5.26%
    101    99      300.0000   342      285.0000      300.0000   370134    5.26%
    103   101      300.0000   300      285.0000      300.0000   381399    5.26%
    105   103      300.0000   419      285.0000      300.0000   384730    5.26%
    107   105      300.0000   273      285.0000      300.0000   387773    5.26%
    108   105      299.0000   465      285.0000      300.0000   400117    5.26%
    109   106      300.0000   343      285.0000      300.0000   402618    5.26%
    110   106      299.0000   467      285.0000      300.0000   407203    5.26%
    112   107      299.0000   500      285.0000      300.0000   419273    5.26%
Elapsed time = 176.57 sec. (192643.57 ticks, tree = 0.84 MB, solutions = 4)
    114   109      300.0000   395      285.0000      300.0000   430794    5.26%
    116   111      300.0000   329      285.0000      300.0000   440106    5.26%
    118   112      299.0000   579      285.0000      300.0000   451647    5.26%
    120   114      300.0000   400      285.0000      300.0000   454461    5.26%
    122   116      300.0000   345      285.0000      300.0000   456950    5.26%
    124   118      300.0000   401      285.0000      300.0000   459283    5.26%
    126   119      299.0000   431      285.0000      300.0000   464535    5.26%
    128   120      299.0000   376      285.0000      300.0000   469485    5.26%
    130   121      299.0000   461      285.0000      300.0000   478909    5.26%
    133   124      300.0000   319      285.0000      300.0000   487636    5.26%
Elapsed time = 193.79 sec. (210648.17 ticks, tree = 1.11 MB, solutions = 4)
    136   127      300.0000   258      285.0000      300.0000   497001    5.26%
    137   128      300.0000   270      285.0000      300.0000   502844    5.26%
    140   131      300.0000   255      285.0000      300.0000   510600    5.26%
    141   131      299.0000   425      285.0000      300.0000   522088    5.26%
    143   133      300.0000   357      285.0000      300.0000   526220    5.26%
    145   134      300.0000   349      285.0000      300.0000   529823    5.26%
    146   134      299.0000   321      285.0000      300.0000   536733    5.26%
    148   135      299.0000   364      285.0000      300.0000   546248    5.26%
    150   136      299.0000   369      285.0000      300.0000   557157    5.26%
    152   138      300.0000   374      285.0000      300.0000   564290    5.26%
Elapsed time = 209.46 sec. (226155.53 ticks, tree = 1.33 MB, solutions = 4)
    154   139      299.0000   366      285.0000      300.0000   571563    5.26%
    156   141      300.0000   332      285.0000      300.0000   576713    5.26%
    157   141      299.0000   417      285.0000      300.0000   588616    5.26%
    158   142      300.0000   336      285.0000      300.0000   599457    5.26%
    160   143      299.0000   375      285.0000      300.0000   604595    5.26%
    162   144      299.0000   385      285.0000      300.0000   613122    5.26%
    164   145      299.0000   464      285.0000      300.0000   623217    5.26%
    167   147      300.0000   414      285.0000      300.0000   634872    5.26%
    168   147      299.0000   356      285.0000      300.0000   648810    5.26%
    175   151      299.0000   400      285.0000      300.0000   657903    5.26%
Elapsed time = 226.90 sec. (243593.29 ticks, tree = 1.55 MB, solutions = 4)
    182   158      299.0000   360      285.0000      300.0000   664757    5.26%
    191   161    infeasible            285.0000      300.0000   675496    5.26%
    201   163    infeasible            285.0000      300.0000   687687    5.26%
    208   164      299.0000   352      285.0000      300.0000   702405    5.26%
    218   166      299.0000   384      285.0000      300.0000   712788    5.26%
    228   166      299.0000   374      285.0000      300.0000   724471    5.26%
    238   166      299.0000   370      285.0000      300.0000   736606    5.26%
    248   168      299.0000   385      285.0000      300.0000   747875    5.26%
    258   170    infeasible            285.0000      300.0000   759938    5.26%
    260   170      300.0000   982      285.0000      300.0000   773567    5.26%
Elapsed time = 269.22 sec. (290345.65 ticks, tree = 1.89 MB, solutions = 4)
    265   175      300.0000   943      285.0000      300.0000   779549    5.26%
    272   182      300.0000   885      285.0000      300.0000   794189    5.26%
    276   186      300.0000   754      285.0000      300.0000   802380    5.26%
    281   191      300.0000   743      285.0000      300.0000   815079    5.26%
    284   194      300.0000   641      285.0000      300.0000   823973    5.26%
    289   199      300.0000   671      285.0000      300.0000   830230    5.26%
    294   204      300.0000   741      285.0000      300.0000   840540    5.26%
    299   209      300.0000   658      285.0000      300.0000   846033    5.26%
    300   210      300.0000   708      285.0000      300.0000   846716    5.26%
    303   213      300.0000   740      285.0000      300.0000   859594    5.26%
Elapsed time = 320.11 sec. (345789.30 ticks, tree = 2.57 MB, solutions = 4)
    307   217      300.0000   633      285.0000      300.0000   873018    5.26%
    310   220      300.0000   563      285.0000      300.0000   885689    5.26%
    314   224      300.0000   545      285.0000      300.0000   910526    5.26%
    320   230      300.0000   479      285.0000      300.0000   924167    5.26%
    322   232      300.0000   380      285.0000      300.0000   939301    5.26%
    325   235      300.0000   406      285.0000      300.0000   947670    5.26%
    329   239      300.0000   314      285.0000      300.0000   956120    5.26%
    331   241      300.0000   361      285.0000      300.0000   971542    5.26%
    333   243      300.0000   373      285.0000      300.0000   992029    5.26%
    337   247      300.0000   226      285.0000      300.0000  1009576    5.26%
Elapsed time = 369.08 sec. (398045.12 ticks, tree = 3.10 MB, solutions = 4)
    342   252      300.0000   356      285.0000      300.0000  1034830    5.26%
    344   254      300.0000   390      285.0000      300.0000  1047115    5.26%
    348   258      300.0000   422      285.0000      300.0000  1056215    5.26%
    354   264      300.0000   474      285.0000      300.0000  1066218    5.26%
    360   270      300.0000   425      285.0000      300.0000  1075321    5.26%
    365   275      300.0000   444      285.0000      300.0000  1083221    5.26%
    371   281      300.0000   422      285.0000      300.0000  1091349    5.26%
    377   287      300.0000   485      285.0000      300.0000  1100574    5.26%
    383   292      300.0000   427      285.0000      300.0000  1109397    5.26%
    389   296      299.0000   557      285.0000      300.0000  1118168    5.26%
Elapsed time = 410.59 sec. (444040.83 ticks, tree = 3.96 MB, solutions = 4)
    395   300      300.0000   373      285.0000      300.0000  1128504    5.26%
    400   305      300.0000   620      285.0000      300.0000  1139112    5.26%
    407   311      300.0000   412      285.0000      300.0000  1147376    5.26%
    412   314      300.0000   418      285.0000      300.0000  1157179    5.26%
    420   321      300.0000   409      285.0000      300.0000  1164714    5.26%
    426   326      300.0000   419      285.0000      300.0000  1175274    5.26%
    433   333      300.0000   388      285.0000      300.0000  1184674    5.26%
    440   338      299.0000   304      285.0000      300.0000  1194685    5.26%
    448   344      300.0000   404      285.0000      300.0000  1206959    5.26%
    454   349      300.0000   328      285.0000      300.0000  1215866    5.26%
Elapsed time = 449.12 sec. (485980.93 ticks, tree = 4.87 MB, solutions = 4)
    461   354      300.0000   369      285.0000      300.0000  1225500    5.26%
    468   359      300.0000   330      285.0000      300.0000  1236890    5.26%
    475   363      300.0000   341      285.0000      300.0000  1248579    5.26%
    480   366      299.0000   333      285.0000      300.0000  1255143    5.26%
    488   371      299.6003   432      285.0000      300.0000  1266817    5.26%
    496   376      300.0000   333      285.0000      300.0000  1278385    5.26%
    500   379      300.0000   343      285.0000      300.0000  1282080    5.26%
    508   385      300.0000   323      285.0000      300.0000  1293141    5.26%
    516   390      299.0000   324      285.0000      300.0000  1302471    5.26%
    524   396      299.0000   246      285.0000      300.0000  1313887    5.26%
Elapsed time = 491.94 sec. (531199.61 ticks, tree = 5.69 MB, solutions = 4)
    533   402      298.0000   359      285.0000      300.0000  1326810    5.26%
    541   408      298.0000   316      285.0000      300.0000  1339840    5.26%
    552   415      298.0000   287      285.0000      300.0000  1352358    5.26%
    562   424      298.0000   215      285.0000      300.0000  1357146    5.26%
    571   429      298.0000   233      285.0000      300.0000  1366698    5.26%
    582   434      298.0000   259      285.0000      300.0000  1379563    5.26%
    595   441      297.0000   201      285.0000      300.0000  1389585    5.26%
    608   448      297.0000   202      285.0000      300.0000  1401056    5.26%
    614   450      300.0000   955      285.0000      300.0000  1418216    5.26%
    615   451      300.0000   383      285.0000      300.0000  1430547    5.26%
Elapsed time = 537.59 sec. (579609.59 ticks, tree = 6.67 MB, solutions = 4)
    616   452      300.0000   380      285.0000      300.0000  1444286    5.26%
    621   456      299.0000   604      285.0000      300.0000  1454991    5.26%
    627   462      299.0000   527      285.0000      300.0000  1462979    5.26%
    632   467      299.0000   380      285.0000      300.0000  1472845    5.26%
    638   472      298.4747   540      285.0000      300.0000  1483987    5.26%
    647   480      297.0000   497      285.0000      300.0000  1491645    5.26%
    658   490      296.0000   349      285.0000      300.0000  1499296    5.26%
    670   501      295.0000   246      285.0000      300.0000  1506064    5.26%
    682   511      295.0000   220      285.0000      300.0000  1515046    5.26%
    695   514      295.0000   118      285.0000      300.0000  1527981    5.26%
Elapsed time = 577.26 sec. (622085.33 ticks, tree = 7.75 MB, solutions = 4)
Starting limited solution polishing.
    701   514      300.0000   457      285.0000      300.0000  1540451    5.26%
    706   519      300.0000   437      285.0000      300.0000  1551196    5.26%
    711   524      300.0000   425      285.0000      300.0000  1559503    5.26%
    715   528      300.0000   430      285.0000      300.0000  1570088    5.26%
    720   533      300.0000   452      285.0000      300.0000  1580460    5.26%

Clique cuts applied:  22

Root node processing (before b&c):
  Real time             =   32.03 sec. (38368.73 ticks)
Sequential b&c:
  Real time             =  567.97 sec. (609243.47 ticks)
                          ------------
Total (root+branch&cut) =  600.00 sec. (647612.20 ticks)
Primal:	285
Dual:	300
Status:	Feasible
Time:	600.05
Sequence:
	12
	17
	1
	20
	2
	9
	1
	16
	21
	9
	15
	20
	5
	16
	5
	20
	22
	23
	21
	24
	21
	23
	22
	20
	21
	24
	5
	20
	22
	20
	5
	24
	21
	23
	2
	23
	22
	20
	21
	24
	1
	4
	0
	19
	11
	17
	12
	6
	16
	5
	9
	15
	20
	21
	17
	11
	19
	18
	7
	11
	8
	14
	17
	13
	3
	0
	4
	1
	16
	5
	10
	15
	3
	14
	17
	13
	3
	18
	7
	15
	16
	5
	2
	23
	15
	10
	21
	24
	15
	10
	21
	24
	1
	9
	2
	20
	15
	9
	2
	23
	6
	18
	4
	13
	8
	14
	17
	11
	19
	18
	7
	13
	15
	10
	22
	20
	15
	9
	21
	24
	6
	9
	2
	23
	15
	10
	5
	16
	1
	4
	0
	3
	13
	17
	0
	3
	15
	10
	5
	16
	6
	12
	17
	11
	19
	0
	4
	11
	8
	0
	21
	11
	8
	14
	17
	13
	3
	0
	4
	13
	8
	11
	7
	22
	19
	11
	17
	13
	3
	0
	4
	1
	16
	2
	9
	1
	24
	21
	10
	15
	20
	2
	9
	6
	24
	2
	9
	1
	16
	1
	10
	15
	24
	21
	10
	15
	24
	21
	16
	15
	20
	2
	4
	6
	24
	21
	12
	8
	13
	17
	13
	17
	13
	17
	13
	4
	15
	10
	1
	0
	8
	21
	19
	18
	3
	18
	19
	14
	8
	18
	3
	0
	19
	18
	19
	12
	8
	14
	3
	0
	1
	18
	19
	18
	6
	18
	6
	10
	15
	10
	1
	0
	3
	18
	19
	14
	8
	12
	3
	0
	19
	11
	17
	14
	8
	6
	7
	18
	8
	11
	19
	0
	1
	20
	2
	15
	15
	11
	7
	0
	8
	11
	4
	0
	6
